Welcome to the CBC MILP Solver 
Version: Trunk
Build Date: Apr 16 2020 

Starting solution of the Linear programming relaxation problem using Primal Simplex

Using Python-MIP package version 1.8.1
Machines:  4 Jobs:  4
Order: 
Job  0 : machine 0 ( 10 ) machine 3 ( 1 ) machine 2 ( 6 ) machine 1 ( 7 ) 
Job  1 : machine 0 ( 1 ) machine 3 ( 7 ) machine 1 ( 5 ) machine 2 ( 8 ) 
Job  2 : machine 3 ( 9 ) machine 2 ( 3 ) machine 1 ( 7 ) machine 0 ( 1 ) 
Job  3 : machine 1 ( 7 ) machine 3 ( 3 ) machine 0 ( 9 ) machine 2 ( 10 ) 
K:  44
Job  0 , e: machine  0 ( 0 ) machine  1 ( 17 ) machine  2 ( 11 ) machine  3 ( 10 ) 
Job  1 , e: machine  0 ( 0 ) machine  1 ( 8 ) machine  2 ( 13 ) machine  3 ( 1 ) 
Job  2 , e: machine  0 ( 19 ) machine  1 ( 12 ) machine  2 ( 9 ) machine  3 ( 0 ) 
Job  3 , e: machine  0 ( 10 ) machine  1 ( 0 ) machine  2 ( 19 ) machine  3 ( 7 ) 
Job  0 , f: machine  0 ( 14 ) machine  1 ( 0 ) machine  2 ( 7 ) machine  3 ( 13 ) 
Job  1 , f: machine  0 ( 20 ) machine  1 ( 8 ) machine  2 ( 0 ) machine  3 ( 13 ) 
Job  2 , f: machine  0 ( 0 ) machine  1 ( 1 ) machine  2 ( 8 ) machine  3 ( 11 ) 
Job  3 , f: machine  0 ( 10 ) machine  1 ( 22 ) machine  2 ( 0 ) machine  3 ( 19 ) 
EST and LST:
Job: 0 Machine: 0 EST: 0 LST: 20
Job: 0 Machine: 1 EST: 17 LST: 37
Job: 0 Machine: 2 EST: 11 LST: 31
Job: 0 Machine: 3 EST: 10 LST: 30
Job: 1 Machine: 0 EST: 0 LST: 23
Job: 1 Machine: 1 EST: 8 LST: 31
Job: 1 Machine: 2 EST: 13 LST: 36
Job: 1 Machine: 3 EST: 1 LST: 24
Job: 2 Machine: 0 EST: 19 LST: 43
Job: 2 Machine: 1 EST: 12 LST: 36
Job: 2 Machine: 2 EST: 9 LST: 33
Job: 2 Machine: 3 EST: 0 LST: 24
Job: 3 Machine: 0 EST: 10 LST: 25
Job: 3 Machine: 1 EST: 0 LST: 15
Job: 3 Machine: 2 EST: 19 LST: 34
Job: 3 Machine: 3 EST: 7 LST: 22
Order:
Job: 0 Machine: 0 = 0 
Job: 0 Machine: 1 = 3 
Job: 0 Machine: 2 = 2 
Job: 0 Machine: 3 = 1 
Job: 1 Machine: 0 = 0 
Job: 1 Machine: 1 = 2 
Job: 1 Machine: 2 = 3 
Job: 1 Machine: 3 = 1 
Job: 2 Machine: 0 = 3 
Job: 2 Machine: 1 = 2 
Job: 2 Machine: 2 = 1 
Job: 2 Machine: 3 = 0 
Job: 3 Machine: 0 = 2 
Job: 3 Machine: 1 = 0 
Job: 3 Machine: 2 = 3 
Job: 3 Machine: 3 = 1 
Distances:
Job 0, Machine 0 -> Machine 3: distance 10
Job 0, Machine 0 -> Machine 2: distance 11
Job 0, Machine 0 -> Machine 1: distance 17
Job 0, Machine 3 -> Machine 2: distance 1
Job 0, Machine 3 -> Machine 1: distance 7
Job 0, Machine 2 -> Machine 1: distance 6
Job 1, Machine 0 -> Machine 3: distance 1
Job 1, Machine 0 -> Machine 1: distance 8
Job 1, Machine 0 -> Machine 2: distance 13
Job 1, Machine 3 -> Machine 1: distance 7
Job 1, Machine 3 -> Machine 2: distance 12
Job 1, Machine 1 -> Machine 2: distance 5
Job 2, Machine 3 -> Machine 2: distance 9
Job 2, Machine 3 -> Machine 1: distance 12
Job 2, Machine 3 -> Machine 0: distance 19
Job 2, Machine 2 -> Machine 1: distance 3
Job 2, Machine 2 -> Machine 0: distance 10
Job 2, Machine 1 -> Machine 0: distance 7
Job 3, Machine 1 -> Machine 3: distance 7
Job 3, Machine 1 -> Machine 0: distance 10
Job 3, Machine 1 -> Machine 2: distance 19
Job 3, Machine 3 -> Machine 0: distance 3
Job 3, Machine 3 -> Machine 2: distance 12
Job 3, Machine 0 -> Machine 2: distance 9
McCormic linearization
[(1, 2), (0, 0), (3, 3), (2, 0), (2, 3), (0, 2)]
obj:  0.7999999999999999
solutions:  1
+ 0.1111111111111111x(3,3) + 0.022222222222222223x(2,3) 
C:  29.166666666666664
x(0,0) = 2.17	 x(0,1) = 22.17	 x(0,2) = 13.17	 x(0,3) = 12.17	 
x(1,0) = 6.66	 x(1,1) = 14.66	 x(1,2) = 19.66	 x(1,3) = 7.66	 
x(2,0) = 28.17	 x(2,1) = 21.17	 x(2,2) = 18.17	 x(2,3) = 9.17	 
x(3,0) = 10.17	 x(3,1) = 0.00	 x(3,2) = 19.17	 x(3,3) = 7.17	 
y(0,1,0) = 0.23	 y(1,0,0) = 0.77	 
y(0,2,0) = 0.61	 y(2,0,0) = 0.39	 
y(0,3,0) = 0.90	 y(3,0,0) = 0.10	 
y(1,2,0) = 0.51	 y(2,1,0) = 0.49	 
y(1,3,0) = 0.90	 y(3,1,0) = 0.10	 
y(2,3,0) = 0.00	 y(3,2,0) = 1.00	 
y(0,1,1) = 0.28	 y(1,0,1) = 0.72	 
y(0,2,1) = 0.23	 y(2,0,1) = 0.77	 
y(0,3,1) = 0.00	 y(3,0,1) = 1.00	 
y(1,2,1) = 0.39	 y(2,1,1) = 0.61	 
y(1,3,1) = 0.32	 y(3,1,1) = 0.68	 
y(2,3,1) = 0.00	 y(3,2,1) = 1.00	 
y(0,1,2) = 0.44	 y(1,0,2) = 0.56	 
y(0,2,2) = 0.56	 y(2,0,2) = 0.44	 
y(0,3,2) = 1.00	 y(3,0,2) = 0.00	 
y(1,2,2) = 0.07	 y(2,1,2) = 0.93	 
y(1,3,2) = 0.31	 y(3,1,2) = 0.69	 
y(2,3,2) = 0.88	 y(3,2,2) = 0.12	 
y(0,1,3) = 0.12	 y(1,0,3) = 0.88	 
y(0,2,3) = 0.26	 y(2,0,3) = 0.74	 
y(0,3,3) = 0.10	 y(3,0,3) = 0.90	 
y(1,2,3) = 0.33	 y(2,1,3) = 0.67	 
y(1,3,3) = 0.10	 y(3,1,3) = 0.90	 
y(2,3,3) = 0.04	 y(3,2,3) = 0.96	 
obj:  1.1250658640734137
erro
[(1, 2), (2, 0), (2, 2), (1, 0), (0, 2)]
cliques:  0 mip: 77
C:  30.000000000000004
x(0,0) = 4.50	 x(0,1) = 23.00	 x(0,2) = 15.50	 x(0,3) = 14.50	 
x(1,0) = 6.50	 x(1,1) = 14.50	 x(1,2) = 19.50	 x(1,3) = 7.50	 
x(2,0) = 26.50	 x(2,1) = 19.50	 x(2,2) = 16.50	 x(2,3) = 7.50	 
x(3,0) = 10.50	 x(3,1) = 0.50	 x(3,2) = 19.50	 x(3,3) = 7.50	 
y(0,1,0) = 0.12	 y(1,0,0) = 0.88	 
y(0,2,0) = 0.77	 y(2,0,0) = 0.23	 
y(0,3,0) = 0.80	 y(3,0,0) = 0.20	 
y(1,2,0) = 0.48	 y(2,1,0) = 0.52	 
y(1,3,0) = 0.88	 y(3,1,0) = 0.12	 
y(2,3,0) = 0.00	 y(3,2,0) = 1.00	 
y(0,1,1) = 0.28	 y(1,0,1) = 0.72	 
y(0,2,1) = 0.58	 y(2,0,1) = 0.42	 
y(0,3,1) = 0.00	 y(3,0,1) = 1.00	 
y(1,2,1) = 0.34	 y(2,1,1) = 0.66	 
y(1,3,1) = 0.29	 y(3,1,1) = 0.71	 
y(2,3,1) = 0.00	 y(3,2,1) = 1.00	 
y(0,1,2) = 0.36	 y(1,0,2) = 0.64	 
y(0,2,2) = 0.20	 y(2,0,2) = 0.80	 
y(0,3,2) = 0.80	 y(3,0,2) = 0.20	 
y(1,2,2) = 0.00	 y(2,1,2) = 1.00	 
y(1,3,2) = 0.32	 y(3,1,2) = 0.68	 
y(2,3,2) = 1.00	 y(3,2,2) = 0.00	 
y(0,1,3) = 0.00	 y(1,0,3) = 1.00	 
y(0,2,3) = 0.09	 y(2,0,3) = 0.91	 
y(0,3,3) = 0.20	 y(3,0,3) = 0.80	 
y(1,2,3) = 0.28	 y(2,1,3) = 0.72	 
y(1,3,3) = 0.12	 y(3,1,3) = 0.88	 
y(2,3,3) = 0.50	 y(3,2,3) = 0.50	 
obj:  1.0
erro
[(0, 1), (3, 3), (2, 1), (2, 0), (2, 3), (1, 0)]
cliques:  0 mip: 51
C:  29.999999999999986
x(0,0) = 1.03	 x(0,1) = 23.00	 x(0,2) = 12.38	 x(0,3) = 11.03	 
x(1,0) = -0.00	 x(1,1) = 11.48	 x(1,2) = 22.00	 x(1,3) = 1.00	 
x(2,0) = 29.00	 x(2,1) = 18.50	 x(2,2) = 15.50	 x(2,3) = 6.50	 
x(3,0) = 10.70	 x(3,1) = 0.70	 x(3,2) = 20.00	 x(3,3) = 7.70	 
y(0,1,0) = 0.00	 y(1,0,0) = 1.00	 
y(0,2,0) = 1.00	 y(2,0,0) = 0.00	 
y(0,3,0) = 0.98	 y(3,0,0) = 0.02	 
y(1,2,0) = 0.69	 y(2,1,0) = 0.31	 
y(1,3,0) = 0.60	 y(3,1,0) = 0.40	 
y(2,3,0) = 0.00	 y(3,2,0) = 1.00	 
y(0,1,1) = 0.00	 y(1,0,1) = 1.00	 
y(0,2,1) = 0.42	 y(2,0,1) = 0.58	 
y(0,3,1) = 0.00	 y(3,0,1) = 1.00	 
y(1,2,1) = 0.46	 y(2,1,1) = 0.54	 
y(1,3,1) = 0.16	 y(3,1,1) = 0.84	 
y(2,3,1) = 0.00	 y(3,2,1) = 1.00	 
y(0,1,2) = 0.53	 y(1,0,2) = 0.47	 
y(0,2,2) = 0.24	 y(2,0,2) = 0.76	 
y(0,3,2) = 1.00	 y(3,0,2) = 0.00	 
y(1,2,2) = 0.13	 y(2,1,2) = 0.87	 
y(1,3,2) = 0.26	 y(3,1,2) = 0.74	 
y(2,3,2) = 0.94	 y(3,2,2) = 0.06	 
y(0,1,3) = 0.11	 y(1,0,3) = 0.89	 
y(0,2,3) = 0.42	 y(2,0,3) = 0.58	 
y(0,3,3) = 0.02	 y(3,0,3) = 0.98	 
y(1,2,3) = 0.45	 y(2,1,3) = 0.55	 
y(1,3,3) = 0.40	 y(3,1,3) = 0.60	 
y(2,3,3) = 0.70	 y(3,2,3) = 0.30	 
obj:  0.8333333333333459
solutions:  1
+ 0.1111111111111111x(1,3) + 0.11111111111111113x(2,3) 
[(1, 2), (1, 3), (0, 2), (2, 1), (2, 3), (1, 1)]
cliques:  1 mip: 96
C:  30.05540166204986
x(0,0) = 0.09	 x(0,1) = 17.09	 x(0,2) = 11.09	 x(0,3) = 10.09	 
x(1,0) = 0.00	 x(1,1) = 8.50	 x(1,2) = 13.50	 x(1,3) = 1.50	 
x(2,0) = 29.06	 x(2,1) = 21.59	 x(2,2) = 18.45	 x(2,3) = 9.45	 
x(3,0) = 10.11	 x(3,1) = 0.11	 x(3,2) = 19.11	 x(3,3) = 7.11	 
y(0,1,0) = 0.04	 y(1,0,0) = 0.96	 
y(0,2,0) = 1.00	 y(2,0,0) = 0.00	 
y(0,3,0) = 1.00	 y(3,0,0) = -0.00	 
y(1,2,0) = 0.80	 y(2,1,0) = 0.20	 
y(1,3,0) = 0.99	 y(3,1,0) = 0.01	 
y(2,3,0) = 0.00	 y(3,2,0) = 1.00	 
y(0,1,1) = 0.32	 y(1,0,1) = 0.68	 
y(0,2,1) = 0.92	 y(2,0,1) = 0.08	 
y(0,3,1) = 0.00	 y(3,0,1) = 1.00	 
y(1,2,1) = 0.65	 y(2,1,1) = 0.35	 
y(1,3,1) = 0.06	 y(3,1,1) = 0.94	 
y(2,3,1) = 0.00	 y(3,2,1) = 1.00	 
y(0,1,2) = 0.32	 y(1,0,2) = 0.68	 
y(0,2,2) = 1.00	 y(2,0,2) = 0.00	 
y(0,3,2) = 1.00	 y(3,0,2) = 0.00	 
y(1,2,2) = 0.53	 y(2,1,2) = 0.47	 
y(1,3,2) = 0.88	 y(3,1,2) = 0.12	 
y(2,3,2) = 0.30	 y(3,2,2) = 0.70	 
y(0,1,3) = 0.32	 y(1,0,3) = 0.68	 
y(0,2,3) = 0.90	 y(2,0,3) = 0.10	 
y(0,3,3) = 0.00	 y(3,0,3) = 1.00	 
y(1,2,3) = 0.94	 y(2,1,3) = 0.06	 
y(1,3,3) = 0.88	 y(3,1,3) = 0.12	 
y(2,3,3) = 0.06	 y(3,2,3) = 0.94	 
obj:  0.9777890021024023
solutions:  1
+ 0.04147465437788019x(0,1) + 0.011311269375785502x(2,1) + 0.0029325513196480843x(1,1) 
[(1, 2), (0, 1), (2, 1), (2, 2), (1, 1)]
cliques:  1 mip: 105
C:  31.000000000000004
x(0,0) = 1.00	 x(0,1) = 18.00	 x(0,2) = 12.00	 x(0,3) = 11.00	 
x(1,0) = 0.00	 x(1,1) = 9.07	 x(1,2) = 14.07	 x(1,3) = 2.07	 
x(2,0) = 30.00	 x(2,1) = 21.10	 x(2,2) = 18.10	 x(2,3) = 6.93	 
x(3,0) = 11.00	 x(3,1) = 1.00	 x(3,2) = 20.41	 x(3,3) = 8.00	 
y(0,1,0) = 0.00	 y(1,0,0) = 1.00	 
y(0,2,0) = 1.00	 y(2,0,0) = 0.00	 
y(0,3,0) = 1.00	 y(3,0,0) = 0.00	 
y(1,2,0) = 0.86	 y(2,1,0) = 0.14	 
y(1,3,0) = 0.91	 y(3,1,0) = 0.09	 
y(2,3,0) = 0.00	 y(3,2,0) = 1.00	 
y(0,1,1) = 0.31	 y(1,0,1) = 0.69	 
y(0,2,1) = 0.68	 y(2,0,1) = 0.32	 
y(0,3,1) = 0.00	 y(3,0,1) = 1.00	 
y(1,2,1) = 0.69	 y(2,1,1) = 0.31	 
y(1,3,1) = 0.04	 y(3,1,1) = 0.96	 
y(2,3,1) = 0.00	 y(3,2,1) = 1.00	 
y(0,1,2) = 0.31	 y(1,0,2) = 0.69	 
y(0,2,2) = 1.00	 y(2,0,2) = 0.00	 
y(0,3,2) = 1.00	 y(3,0,2) = 0.00	 
y(1,2,2) = 0.46	 y(2,1,2) = 0.54	 
y(1,3,2) = 0.93	 y(3,1,2) = 0.07	 
y(2,3,2) = 0.95	 y(3,2,2) = 0.05	 
y(0,1,3) = 0.31	 y(1,0,3) = 0.69	 
y(0,2,3) = 0.35	 y(2,0,3) = 0.65	 
y(0,3,3) = -0.00	 y(3,0,3) = 1.00	 
y(1,2,3) = 0.48	 y(2,1,3) = 0.52	 
y(1,3,3) = 0.79	 y(3,1,3) = 0.21	 
y(2,3,3) = 0.70	 y(3,2,3) = 0.30	 
obj:  0.8496030655400859
solutions:  1
+ 0.06713164777680905x(1,3) + 0.06102877070619006x(2,3) + 0.02615518744551004x(0,3) 
[(1, 2), (1, 3), (2, 3), (2, 2), (0, 3)]
cliques:  1 mip: 75
C:  30.999999999999996
x(0,0) = 0.63	 x(0,1) = 17.63	 x(0,2) = 11.63	 x(0,3) = 10.63	 
x(1,0) = 0.00	 x(1,1) = 10.05	 x(1,2) = 15.05	 x(1,3) = 3.05	 
x(2,0) = 30.00	 x(2,1) = 21.14	 x(2,2) = 18.14	 x(2,3) = 9.14	 
x(3,0) = 11.04	 x(3,1) = 0.38	 x(3,2) = 20.04	 x(3,3) = 7.38	 
y(0,1,0) = 0.45	 y(1,0,0) = 0.55	 
y(0,2,0) = 1.00	 y(2,0,0) = 0.00	 
y(0,3,0) = 0.58	 y(3,0,0) = 0.42	 
y(1,2,0) = 0.83	 y(2,1,0) = 0.17	 
y(1,3,0) = 0.95	 y(3,1,0) = 0.05	 
y(2,3,0) = 0.00	 y(3,2,0) = 1.00	 
y(0,1,1) = 0.35	 y(1,0,1) = 0.65	 
y(0,2,1) = 0.69	 y(2,0,1) = 0.31	 
y(0,3,1) = 0.00	 y(3,0,1) = 1.00	 
y(1,2,1) = 0.58	 y(2,1,1) = 0.42	 
y(1,3,1) = 0.11	 y(3,1,1) = 0.89	 
y(2,3,1) = 0.00	 y(3,2,1) = 1.00	 
y(0,1,2) = 0.35	 y(1,0,2) = 0.65	 
y(0,2,2) = 1.00	 y(2,0,2) = 0.00	 
y(0,3,2) = 1.00	 y(3,0,2) = 0.00	 
y(1,2,2) = 0.48	 y(2,1,2) = 0.52	 
y(1,3,2) = 0.88	 y(3,1,2) = 0.12	 
y(2,3,2) = 0.93	 y(3,2,2) = 0.07	 
y(0,1,3) = 0.35	 y(1,0,3) = 0.65	 
y(0,2,3) = 0.76	 y(2,0,3) = 0.24	 
y(0,3,3) = 0.01	 y(3,0,3) = 0.99	 
y(1,2,3) = 0.61	 y(2,1,3) = 0.39	 
y(1,3,3) = 0.62	 y(3,1,3) = 0.38	 
y(2,3,3) = 0.59	 y(3,2,3) = 0.41	 
obj:  0.6348485111107997
solutions:  1
+ x(0,0) + 0.1x(1,0) 
[(1, 2), (0, 0), (3, 0), (2, 2), (1, 0)]
cliques:  1 mip: 101
C:  31.0
x(0,0) = 3.66	 x(0,1) = 24.00	 x(0,2) = 15.74	 x(0,3) = 14.74	 
x(1,0) = 0.00	 x(1,1) = 9.74	 x(1,2) = 14.74	 x(1,3) = 2.74	 
x(2,0) = 30.00	 x(2,1) = 21.15	 x(2,2) = 16.05	 x(2,3) = 7.05	 
x(3,0) = 10.62	 x(3,1) = 0.62	 x(3,2) = 20.18	 x(3,3) = 7.62	 
y(0,1,0) = 0.09	 y(1,0,0) = 0.91	 
y(0,2,0) = 1.00	 y(2,0,0) = 0.00	 
y(0,3,0) = 0.62	 y(3,0,0) = 0.38	 
y(1,2,0) = 0.70	 y(2,1,0) = 0.30	 
y(1,3,0) = 1.00	 y(3,1,0) = 0.00	 
y(2,3,0) = 0.00	 y(3,2,0) = 1.00	 
y(0,1,1) = 0.06	 y(1,0,1) = 0.94	 
y(0,2,1) = 0.69	 y(2,0,1) = 0.31	 
y(0,3,1) = 0.00	 y(3,0,1) = 1.00	 
y(1,2,1) = 0.69	 y(2,1,1) = 0.31	 
y(1,3,1) = 0.09	 y(3,1,1) = 0.91	 
y(2,3,1) = 0.00	 y(3,2,1) = 1.00	 
y(0,1,2) = 0.26	 y(1,0,2) = 0.74	 
y(0,2,2) = 0.80	 y(2,0,2) = 0.20	 
y(0,3,2) = 0.90	 y(3,0,2) = 0.10	 
y(1,2,2) = 0.46	 y(2,1,2) = 0.54	 
y(1,3,2) = 0.90	 y(3,1,2) = 0.10	 
y(2,3,2) = 0.92	 y(3,2,2) = 0.08	 
y(0,1,3) = 0.18	 y(1,0,3) = 0.82	 
y(0,2,3) = 0.06	 y(2,0,3) = 0.94	 
y(0,3,3) = 0.13	 y(3,0,3) = 0.87	 
y(1,2,3) = 0.71	 y(2,1,3) = 0.29	 
y(1,3,3) = 0.68	 y(3,1,3) = 0.32	 
y(2,3,3) = 0.36	 y(3,2,3) = 0.64	 
obj:  1.0037219819375032
erro
[(1, 2), (0, 0), (3, 3), (3, 0), (2, 3), (2, 2)]
cliques:  0 mip: 101
C:  31.11332604380443
x(0,0) = 0.81	 x(0,1) = 17.81	 x(0,2) = 11.81	 x(0,3) = 10.81	 
x(1,0) = 1.92	 x(1,1) = 9.92	 x(1,2) = 14.92	 x(1,3) = 2.92	 
x(2,0) = 28.35	 x(2,1) = 21.35	 x(2,2) = 17.55	 x(2,3) = 8.55	 
x(3,0) = 10.29	 x(3,1) = 0.29	 x(3,2) = 20.27	 x(3,3) = 7.29	 
y(0,1,0) = 0.09	 y(1,0,0) = 0.91	 
y(0,2,0) = 1.00	 y(2,0,0) = 0.00	 
y(0,3,0) = 0.91	 y(3,0,0) = 0.09	 
y(1,2,0) = 0.88	 y(2,1,0) = 0.12	 
y(1,3,0) = 0.99	 y(3,1,0) = 0.01	 
y(2,3,0) = 0.00	 y(3,2,0) = 1.00	 
y(0,1,1) = 0.49	 y(1,0,1) = 0.51	 
y(0,2,1) = 0.79	 y(2,0,1) = 0.21	 
y(0,3,1) = 0.00	 y(3,0,1) = 1.00	 
y(1,2,1) = 0.63	 y(2,1,1) = 0.37	 
y(1,3,1) = 0.11	 y(3,1,1) = 0.89	 
y(2,3,1) = 0.00	 y(3,2,1) = 1.00	 
y(0,1,2) = 0.80	 y(1,0,2) = 0.20	 
y(0,2,2) = 0.99	 y(2,0,2) = 0.01	 
y(0,3,2) = 0.90	 y(3,0,2) = 0.10	 
y(1,2,2) = 0.53	 y(2,1,2) = 0.47	 
y(1,3,2) = 0.89	 y(3,1,2) = 0.11	 
y(2,3,2) = 0.89	 y(3,2,2) = 0.11	 
y(0,1,3) = 0.09	 y(1,0,3) = 0.91	 
y(0,2,3) = 0.32	 y(2,0,3) = 0.68	 
y(0,3,3) = 0.03	 y(3,0,3) = 0.97	 
y(1,2,3) = 0.50	 y(2,1,3) = 0.50	 
y(1,3,3) = 0.61	 y(3,1,3) = 0.39	 
y(2,3,3) = 0.18	 y(3,2,3) = 0.82	 
obj:  1.0475529494713687
erro
[(0, 1), (1, 2), (1, 3), (2, 3), (2, 2), (1, 1)]
cliques:  0 mip: 142
C:  32.0
x(0,0) = 3.51	 x(0,1) = 21.66	 x(0,2) = 15.66	 x(0,3) = 14.66	 
x(1,0) = 0.00	 x(1,1) = 9.55	 x(1,2) = 14.55	 x(1,3) = 2.03	 
x(2,0) = 27.51	 x(2,1) = 20.51	 x(2,2) = 17.10	 x(2,3) = 7.87	 
x(3,0) = 12.74	 x(3,1) = 0.00	 x(3,2) = 21.74	 x(3,3) = 9.47	 
y(0,1,0) = 0.13	 y(1,0,0) = 0.87	 
y(0,2,0) = 1.00	 y(2,0,0) = 0.00	 
y(0,3,0) = 0.77	 y(3,0,0) = 0.23	 
y(1,2,0) = 0.89	 y(2,1,0) = 0.11	 
y(1,3,0) = 0.89	 y(3,1,0) = 0.11	 
y(2,3,0) = 0.00	 y(3,2,0) = 1.00	 
y(0,1,1) = 0.00	 y(1,0,1) = 1.00	 
y(0,2,1) = 0.42	 y(2,0,1) = 0.58	 
y(0,3,1) = 0.00	 y(3,0,1) = 1.00	 
y(1,2,1) = 0.62	 y(2,1,1) = 0.38	 
y(1,3,1) = 0.11	 y(3,1,1) = 0.89	 
y(2,3,1) = 0.00	 y(3,2,1) = 1.00	 
y(0,1,2) = 0.49	 y(1,0,2) = 0.51	 
y(0,2,2) = 0.84	 y(2,0,2) = 0.16	 
y(0,3,2) = 0.96	 y(3,0,2) = 0.04	 
y(1,2,2) = 0.44	 y(2,1,2) = 0.56	 
y(1,3,2) = 0.97	 y(3,1,2) = 0.03	 
y(2,3,2) = 0.93	 y(3,2,2) = 0.07	 
y(0,1,3) = 0.02	 y(1,0,3) = 0.98	 
y(0,2,3) = 0.28	 y(2,0,3) = 0.72	 
y(0,3,3) = 0.03	 y(3,0,3) = 0.97	 
y(1,2,3) = 0.46	 y(2,1,3) = 0.54	 
y(1,3,3) = 0.97	 y(3,1,3) = 0.03	 
y(2,3,3) = 0.47	 y(3,2,3) = 0.53	 
obj:  0.8934737576167835
solutions:  1
+ 0.07082152974504248x(1,3) + 0.022662889518413602x(3,3) + 0.0679886685552408x(2,3) 
[(1, 2), (1, 3), (3, 3), (2, 3), (0, 2)]
cliques:  1 mip: 106
C:  32.0503638701616
x(0,0) = 0.79	 x(0,1) = 20.51	 x(0,2) = 14.51	 x(0,3) = 13.51	 
x(1,0) = 2.08	 x(1,1) = 10.83	 x(1,2) = 15.83	 x(1,3) = 3.83	 
x(2,0) = 29.56	 x(2,1) = 21.45	 x(2,2) = 16.65	 x(2,3) = 7.65	 
x(3,0) = 12.21	 x(3,1) = 1.53	 x(3,2) = 21.21	 x(3,3) = 9.21	 
y(0,1,0) = 0.10	 y(1,0,0) = 0.90	 
y(0,2,0) = 1.00	 y(2,0,0) = 0.00	 
y(0,3,0) = 0.60	 y(3,0,0) = 0.40	 
y(1,2,0) = 0.88	 y(2,1,0) = 0.12	 
y(1,3,0) = 0.56	 y(3,1,0) = 0.44	 
y(2,3,0) = 0.00	 y(3,2,0) = 1.00	 
y(0,1,1) = 0.01	 y(1,0,1) = 0.99	 
y(0,2,1) = 0.57	 y(2,0,1) = 0.43	 
y(0,3,1) = 0.00	 y(3,0,1) = 1.00	 
y(1,2,1) = 0.50	 y(2,1,1) = 0.50	 
y(1,3,1) = 0.10	 y(3,1,1) = 0.90	 
y(2,3,1) = 0.00	 y(3,2,1) = 1.00	 
y(0,1,2) = 0.78	 y(1,0,2) = 0.22	 
y(0,2,2) = 0.86	 y(2,0,2) = 0.14	 
y(0,3,2) = 0.87	 y(3,0,2) = 0.13	 
y(1,2,2) = 0.59	 y(2,1,2) = 0.41	 
y(1,3,2) = 0.90	 y(3,1,2) = 0.10	 
y(2,3,2) = 0.91	 y(3,2,2) = 0.09	 
y(0,1,3) = 0.00	 y(1,0,3) = 1.00	 
y(0,2,3) = 0.14	 y(2,0,3) = 0.86	 
y(0,3,3) = 0.00	 y(3,0,3) = 1.00	 
y(1,2,3) = 0.59	 y(2,1,3) = 0.41	 
y(1,3,3) = 0.66	 y(3,1,3) = 0.34	 
y(2,3,3) = 0.57	 y(3,2,3) = 0.43	 
obj:  1.1252137111951874
erro
[(0, 1), (3, 0), (2, 1), (1, 0), (1, 1)]
cliques:  0 mip: 137
C:  33.0
x(0,0) = 1.00	 x(0,1) = 18.52	 x(0,2) = 12.52	 x(0,3) = 11.52	 
x(1,0) = 0.00	 x(1,1) = 13.76	 x(1,2) = 18.76	 x(1,3) = 1.00	 
x(2,0) = 32.00	 x(2,1) = 23.43	 x(2,2) = 20.24	 x(2,3) = 11.24	 
x(3,0) = 12.11	 x(3,1) = 0.00	 x(3,2) = 21.23	 x(3,3) = 9.11	 
y(0,1,0) = 0.31	 y(1,0,0) = 0.69	 
y(0,2,0) = 1.00	 y(2,0,0) = 0.00	 
y(0,3,0) = 0.93	 y(3,0,0) = 0.07	 
y(1,2,0) = 1.00	 y(2,1,0) = 0.00	 
y(1,3,0) = 0.81	 y(3,1,0) = 0.19	 
y(2,3,0) = 0.00	 y(3,2,0) = 1.00	 
y(0,1,1) = 0.22	 y(1,0,1) = 0.78	 
y(0,2,1) = 0.93	 y(2,0,1) = 0.07	 
y(0,3,1) = 0.00	 y(3,0,1) = 1.00	 
y(1,2,1) = 0.82	 y(2,1,1) = 0.18	 
y(1,3,1) = 0.28	 y(3,1,1) = 0.72	 
y(2,3,1) = 0.00	 y(3,2,1) = 1.00	 
y(0,1,2) = 0.71	 y(1,0,2) = 0.29	 
y(0,2,2) = 1.00	 y(2,0,2) = 0.00	 
y(0,3,2) = 0.96	 y(3,0,2) = 0.04	 
y(1,2,2) = 0.81	 y(2,1,2) = 0.19	 
y(1,3,2) = 0.78	 y(3,1,2) = 0.22	 
y(2,3,2) = 0.88	 y(3,2,2) = 0.12	 
y(0,1,3) = 0.00	 y(1,0,3) = 1.00	 
y(0,2,3) = 0.73	 y(2,0,3) = 0.27	 
y(0,3,3) = 0.04	 y(3,0,3) = 0.96	 
y(1,2,3) = 0.92	 y(2,1,3) = 0.08	 
y(1,3,3) = 0.82	 y(3,1,3) = 0.18	 
y(2,3,3) = 0.29	 y(3,2,3) = 0.71	 
obj:  1.0
erro
[(1, 2), (0, 0), (3, 3), (2, 3), (1, 0), (0, 2)]
cliques:  0 mip: 0
iterações: 11 cortes cliques encontrados: 6 mip: 1019 objective:  33.0
Coin0506I Presolve 157 (-171) rows, 90 (-71) columns and 490 (-260) elements
Clp1000I sum of infeasibilities 1.79124e-08 - average 1.14092e-10, 0 fixed columns
Coin0506I Presolve 157 (0) rows, 90 (0) columns and 490 (0) elements
Clp0029I End of values pass after 90 iterations
Clp0000I Optimal - objective value 29
Clp0000I Optimal - objective value 29
Coin0511I After Postsolve, objective 29, infeasibilities - dual 0 (0), primal 0 (0)
Clp0000I Optimal - objective value 29
Clp0000I Optimal - objective value 29
Clp0000I Optimal - objective value 29
Coin0511I After Postsolve, objective 29, infeasibilities - dual 0 (0), primal 0 (0)
Clp0032I Optimal objective 29 - 0 iterations time 0.012, Presolve 0.00, Idiot 0.01
Coin3009W Conflict graph built in 0.000 seconds, density: 0.070%
